webassembly/ejemplos_dzn/12/folder12_json_20.dzn
TERM = { '.', 's(2)', 's(4)', 'in_1', 'local_0', 'local_1', 'in_6', 'in_2', 'in_4', 'in_3', 's(1)', 's(0)', 'in_5', 's(3)', 'in_0'};
null = '.';
s = 12;
n = 13;
ndeps = 5;
max_registers_sz = 5;
NR = 2;
registers = [|'local_0', 's(4)', |'local_1', 'in_6'|];
dependencies = [|'i32.load8_s_0', 'i32.store8_3', |'i32.store8_3', 'i32.load16_u_4', |'i32.store_6', 'i32.store8_8', |'i32.store8_8', 'i32.load16_s_11', |'i32.load16_u_4', 'i32.store_6'|];
GET_ENUM = { GET1, GET2, GET3, GET4, GET5, GET6, GET7};
SET_ENUM = { SET1, SET2, SET3, SET4, SET5, SET6, SET7};
TEE_ENUM = { TEE1, TEE2, TEE3, TEE4, TEE5, TEE6, TEE7};
N = 8;
OP = { 'i32.load8_s_0', 'i32.const_0', 'i32.store8_3', 'i32.load16_u_4', 'i32.store_6', 'i32.sub_0', 'i32.store8_8', 'i32.load16_s_11' };
in_ops = [1, 0, 2, 1, 2, 2, 2, 1 ];
out_ops = [1, 1, 0, 1, 0, 1, 0, 1 ];
in1 = ['in_0', '.', 's(4)', 'in_1', 'local_1', 'in_2', 's(2)', 'in_6' ];
in2 = ['.', '.', 's(0)', '.', 's(1)', 'in_3', 'in_4', '.' ];
in3 = ['.', '.', '.', '.', '.', '.', '.', '.' ];
out1 = ['s(0)', 's(4)', '.', 's(1)', '.', 's(2)', '.', 's(3)' ];
out2 = ['.', '.', '.', '.', '.', '.', '.', '.' ];
out3 = ['.', '.', '.', '.', '.', '.', '.', '.' ];
comm = [false, false, false, false, false, false, false, false ];
gas = [1, 1, 1, 1, 1, 1, 1, 1 ];
sz = [1, 1, 1, 1, 1, 1, 1, 1 ];
stor = [false, false, true, false, true, false, true, false ];
lb = [ 1, 1, 1, 1, 1, 1, 1, 1 ];
ub = [ 12, 12, 12, 12, 12, 12, 12, 12 ];
startstack = [ 'in_0', 'in_1', 'in_2', 'in_3', 'in_4', 'in_5', 'in_6', null, null, null, null, null, null ];
endstack = [ 's(3)', null, null, null, null, null, null, null, null, null, null, null, null ];
