webassembly/ejemplos_results/12/folder12_json_20.txt
value = 12;
fgas = [1, 1, 1, 1, 1, 1, 1, 1, 1, 1, 1, 1];
fsize = [1, 1, 1, 1, 1, 1, 1, 1, 1, 1, 1, 1];
states = 
[|    in_0,   in_1, in_2, in_3, in_4, in_5, in_6,  '.', '.', '.', '.', '.', '.'
 |  's(4)',   in_0, in_1, in_2, in_3, in_4, in_5, in_6, '.', '.', '.', '.', '.'
 |    in_0,   in_1, in_2, in_3, in_4, in_5, in_6,  '.', '.', '.', '.', '.', '.'
 |  's(0)',   in_1, in_2, in_3, in_4, in_5, in_6,  '.', '.', '.', '.', '.', '.'
 |  's(4)', 's(0)', in_1, in_2, in_3, in_4, in_5, in_6, '.', '.', '.', '.', '.'
 |    in_1,   in_2, in_3, in_4, in_5, in_6,  '.',  '.', '.', '.', '.', '.', '.'
 |  's(1)',   in_2, in_3, in_4, in_5, in_6,  '.',  '.', '.', '.', '.', '.', '.'
 |    in_2,   in_3, in_4, in_5, in_6,  '.',  '.',  '.', '.', '.', '.', '.', '.'
 |  's(2)',   in_4, in_5, in_6,  '.',  '.',  '.',  '.', '.', '.', '.', '.', '.'
 | local_1, 's(1)',  '.',  '.',  '.',  '.',  '.',  '.', '.', '.', '.', '.', '.'
 |    in_6,   in_6,  '.',  '.',  '.',  '.',  '.',  '.', '.', '.', '.', '.', '.'
 |    in_6,    '.',  '.',  '.',  '.',  '.',  '.',  '.', '.', '.', '.', '.', '.'
 |  's(3)',    '.',  '.',  '.',  '.',  '.',  '.',  '.', '.', '.', '.', '.', '.'
 |];
register_states = 
[| local_0, local_1, '.', '.', '.', '.', '.'
 | local_0, local_1, '.', '.', '.', '.', '.'
 |  's(4)', local_1, '.', '.', '.', '.', '.'
 |  's(4)', local_1, '.', '.', '.', '.', '.'
 |  's(4)', local_1, '.', '.', '.', '.', '.'
 |  's(4)', local_1, '.', '.', '.', '.', '.'
 |  's(4)', local_1, '.', '.', '.', '.', '.'
 |  's(4)',  's(1)', '.', '.', '.', '.', '.'
 |  's(4)',  's(1)', '.', '.', '.', '.', '.'
 |  's(4)',  's(1)', '.', '.', '.', '.', '.'
 |  's(4)',  's(1)', '.', '.', '.', '.', '.'
 |  's(4)',    in_6, '.', '.', '.', '.', '.'
 |  's(4)',    in_6, '.', '.', '.', '.', '.'
 |];
program = [O('i32.const_0'), S(SET1), O('i32.load8_s_0'), O('i32.const_0'), O('i32.store8_3'), O('i32.load16_u_4'), S(SET2), O('i32.sub_0'), O('i32.store8_8'), O('i32.store_6'), S(SET2), O('i32.load16_s_11')];
% time elapsed: 0.41 s
----------
value = 11;
fgas = [1, 1, 1, 1, 1, 1, 1, 1, 1, 1, 1, 0];
fsize = [1, 1, 1, 1, 1, 1, 1, 1, 1, 1, 1, 1];
states = 
[|    in_0,   in_1, in_2, in_3, in_4, in_5, in_6,  '.', '.', '.', '.', '.', '.'
 |  's(0)',   in_1, in_2, in_3, in_4, in_5, in_6,  '.', '.', '.', '.', '.', '.'
 |  's(4)', 's(0)', in_1, in_2, in_3, in_4, in_5, in_6, '.', '.', '.', '.', '.'
 |  's(4)', 's(0)', in_1, in_2, in_3, in_4, in_5, in_6, '.', '.', '.', '.', '.'
 | local_1, 's(1)', in_3, in_4, in_5, in_6,  '.',  '.', '.', '.', '.', '.', '.'
 |    in_2,   in_3, in_5, in_6,  '.',  '.',  '.',  '.', '.', '.', '.', '.', '.'
 |  's(2)',   in_4, in_6,  '.',  '.',  '.',  '.',  '.', '.', '.', '.', '.', '.'
 |    in_1,   in_6,  '.',  '.',  '.',  '.',  '.',  '.', '.', '.', '.', '.', '.'
 |  's(1)',   in_6,  '.',  '.',  '.',  '.',  '.',  '.', '.', '.', '.', '.', '.'
 |    in_6,    '.',  '.',  '.',  '.',  '.',  '.',  '.', '.', '.', '.', '.', '.'
 |    in_6,    '.',  '.',  '.',  '.',  '.',  '.',  '.', '.', '.', '.', '.', '.'
 |  's(3)',    '.',  '.',  '.',  '.',  '.',  '.',  '.', '.', '.', '.', '.', '.'
 |  's(3)',    '.',  '.',  '.',  '.',  '.',  '.',  '.', '.', '.', '.', '.', '.'
 |];
register_states = 
[| local_0, local_1, '.', '.', '.', '.', '.'
 | local_0, local_1, '.', '.', '.', '.', '.'
 | local_0, local_1, '.', '.', '.', '.', '.'
 |  's(4)', local_1, '.', '.', '.', '.', '.'
 |  's(4)', local_1, '.', '.', '.', '.', '.'
 |  's(4)', local_1, '.', '.', '.', '.', '.'
 |  's(4)', local_1, '.', '.', '.', '.', '.'
 |  's(4)', local_1, '.', '.', '.', '.', '.'
 |  's(4)', local_1, '.', '.', '.', '.', '.'
 |  's(4)',  's(1)', '.', '.', '.', '.', '.'
 |  's(4)',    in_6, '.', '.', '.', '.', '.'
 |  's(4)',    in_6, '.', '.', '.', '.', '.'
 |  's(4)',    in_6, '.', '.', '.', '.', '.'
 |];
program = [O('i32.load8_s_0'), O('i32.const_0'), TEE(TEE1), O('i32.store8_3'), O('i32.store_6'), O('i32.sub_0'), O('i32.store8_8'), O('i32.load16_u_4'), S(SET2), TEE(TEE2), O('i32.load16_s_11'), NOP];
% time elapsed: 0.49 s
----------
==========
% time elapsed: 0.53 s
% [value > 10]
